c --- [ banner ] -------------------------------------------------------------
c 
c CaDiCaL SAT Solver
c Copyright (c) 2016-2024
c A. Biere, M. Fleury, N. Froleyks, K. Fazekas, F. Pollitt, T. Faller
c JKU Linz, University of Freiburg, TU Wien
c 
c Version 2.1.3 f13d74439a5b5c963ac5b02d05ce93a8098018b8
c g++ (Gentoo 12.3.1_p20230526 p2) 12.3.1 20230526 -Wall -Wextra -O3 -DNDEBUG
c Thu Apr 10 08:26:21 EDT 2025 Linux narval2.narval.calcul.quebec 4.18.0-553.40.1.el8_10.x86_64 x86_64
c 
c --- [ parsing input ] ------------------------------------------------------
c 
c reading DIMACS file from 'cnfs//op_complete_20.cnf'
c opening file to read 'cnfs//op_complete_20.cnf'
c found 'p cnf 380 7050' header
c parsed 7050 clauses in 0.00 seconds process time
c 
c --- [ options ] ------------------------------------------------------------
c 
c all options are set to their default value
c 
c --- [ solving ] ------------------------------------------------------------
c 
c time measured in process time since initialization
c 
c  seconds  reductions  redundant irredundant
c         MB    restarts       trail    variables
c          level   conflicts       glue     remaining
c 
c *  0.00  5  0 0   0    0    0  0% 0 7050 380 100%
c {  0.00  5  0 0   0    0    0  0% 0 7050 380 100%
c -  0.00  5 26 1   1  303   72 23% 6 7050 380 100%
c i  0.01  5 26 1  16  740  264 27% 6 7050 378 99%
c i  0.01  5 25 1  16  760  273 27% 5 7050 376 99%
c i  0.01  5 25 1  16  764  274 27% 5 7050 344 91%
c }  0.01  5 25 1  16  766  274 27% 5 7050 308 81%
c 0  0.01  5 25 1  16  766  274 27% 5 7050 308 81%
c 
c --- [ result ] -------------------------------------------------------------
c 
s UNSATISFIABLE
c 
c --- [ run-time profiling ] -------------------------------------------------
c 
c process time taken by individual solving procedures
c (percentage relative to process time for solving)
c 
c         0.00   97.88% search
c         0.00   93.52% unstable
c         0.00   60.17% parse
c         0.00    3.97% lucky
c         0.00    0.00% simplify
c   =================================
c         0.00   58.41% solve
c 
c last line shows process time for solving
c (percentage relative to total process time)
c 
c --- [ statistics ] ---------------------------------------------------------
c 
c chronological:               185        24.15 %  of conflicts
c conflicts:                   766    188669.95    per second
c decisions:                  1950    480295.57    per second
c fixed:                        72        18.95 %  of all variables
c learned:                     385        50.26 %  per conflict
c learned_lits:               4958       100.00 %  learned literals
c minimized:                     0         0.00 %  learned literals
c shrunken:                    437         8.81 %  learned literals
c minishrunken:                191         3.85 %  learned literals
c otfs:                        189        24.67 %  of conflict
c propagations:              10342         2.55 M  per second
c restarts:                     16        47.88    interval
c subsumed:                    122         1.64 %  of all clauses
c strengthened:                174         2.34 %  of all clauses
c 
c seconds are measured in process time for solving
c 
c --- [ resources ] ----------------------------------------------------------
c 
c total process time since initialization:         0.01    seconds
c total real time since initialization:            0.05    seconds
c maximum resident set size of process:            5.04    MB
c 
c --- [ shutting down ] ------------------------------------------------------
c 
c exit 20
